Minimize
  - 13 y_0 - 26 y_1 - 35 y_2 - 19 y_3 - 27 y_4 - 23 y_5 - 28 y_6 - 10 y_7
   - 18 y_8 - 36 y_9 - 23 y_10 - 29 y_11 - 14 y_12 - 31 y_13 - 20 y_14
   - 16 y_16 - 21 y_17 - 25 y_18 - 26 y_19 + 54 x_0_2 + 23 x_0_3
   + 35 x_0_11 + 75 x_0_13 + 25 x_0_15 + 29 x_0_18 + 42 x_1_7 + 25 x_1_9
   + 60 x_1_11 + 82 x_1_14 + 83 x_1_16 + 19 x_1_18 + 81 x_2_4 + 58 x_2_7
   + 96 x_2_10 + 78 x_2_13 + 90 x_3_4 + 65 x_3_17 + 47 x_3_18 + 27 x_4_10
   + 43 x_4_14 + 52 x_4_19 + 21 x_5_12 + 47 x_5_15 + 89 x_6_9 + 102 x_6_10
   + 7 x_6_11 + 84 x_6_12 + 96 x_6_14 + 57 x_6_15 + 70 x_6_16 + 65 x_7_9
   + 72 x_7_13 + 34 x_7_18 + 86 x_8_9 + 81 x_8_10 + 36 x_8_15 + 69 x_9_12
   + 71 x_9_15 + 103 x_9_16 + 110 x_9_17 + 38 x_10_13 + 52 x_10_16
   + 85 x_10_18 + 84 x_11_12 + 98 x_11_14 + 90 x_11_17 + 73 x_11_19
   + 26 x_12_14 + 46 x_12_16 + 46 x_12_17 + 65 x_12_18 + 80 x_13_17
   + 40 x_14_15 + 87 x_14_18 + 32 x_15_16 + 17 x_16_17 + 440 Constant
Subject To
 c_0: y_1 = 1
 c_1_0: y_0 >= 1
 c_1_1: y_1 >= 1
 c_1_2: y_2 >= 1
 c_1_3: y_3 >= 1
 c_1_4: y_4 >= 1
 c_1_5: y_5 >= 1
 c_1_6: y_6 >= 1
 c_1_7: y_7 >= 1
 c_1_8: y_8 >= 1
 c_1_9: y_9 >= 1
 c_1_10: y_10 >= 1
 c_1_11: y_11 >= 1
 c_1_12: y_12 >= 1
 c_1_13: y_13 >= 1
 c_1_14: y_14 >= 1
 c_1_15: y_15 >= 1
 c_1_16: y_16 >= 1
 c_1_17: y_17 >= 1
 c_1_18: y_18 >= 1
 c_1_19: y_19 >= 1
 c_2_0: - 2 y_0 + x_0_2 + x_0_3 + x_0_11 + x_0_13 + x_0_15 + x_0_18 = 0
 c_2_1: - 2 y_1 + x_1_7 + x_1_9 + x_1_11 + x_1_14 + x_1_16 + x_1_18 = 0
 c_2_2: - 2 y_2 + x_0_2 + x_2_4 + x_2_7 + x_2_10 + x_2_13 = 0
 c_2_3: - 2 y_3 + x_0_3 + x_3_4 + x_3_17 + x_3_18 = 0
 c_2_4: - 2 y_4 + x_2_4 + x_3_4 + x_4_10 + x_4_14 + x_4_19 = 0
 c_2_5: - 2 y_5 + x_5_12 + x_5_15 = 0
 c_2_6: - 2 y_6 + x_6_9 + x_6_10 + x_6_11 + x_6_12 + x_6_14 + x_6_15
   + x_6_16 = 0
 c_2_7: - 2 y_7 + x_1_7 + x_2_7 + x_7_9 + x_7_13 + x_7_18 = 0
 c_2_8: - 2 y_8 + x_8_9 + x_8_10 + x_8_15 = 0
 c_2_9: - 2 y_9 + x_1_9 + x_6_9 + x_7_9 + x_8_9 + x_9_12 + x_9_15 + x_9_16
   + x_9_17 = 0
 c_2_10: - 2 y_10 + x_2_10 + x_4_10 + x_6_10 + x_8_10 + x_10_13 + x_10_16
   + x_10_18 = 0
 c_2_11: - 2 y_11 + x_0_11 + x_1_11 + x_6_11 + x_11_12 + x_11_14 + x_11_17
   + x_11_19 = 0
 c_2_12: - 2 y_12 + x_5_12 + x_6_12 + x_9_12 + x_11_12 + x_12_14 + x_12_16
   + x_12_17 + x_12_18 = 0
 c_2_13: - 2 y_13 + x_0_13 + x_2_13 + x_7_13 + x_10_13 + x_13_17 = 0
 c_2_14: - 2 y_14 + x_1_14 + x_4_14 + x_6_14 + x_11_14 + x_12_14 + x_14_15
   + x_14_18 = 0
 c_2_15: - 2 y_15 + x_0_15 + x_5_15 + x_6_15 + x_8_15 + x_9_15 + x_14_15
   + x_15_16 = 0
 c_2_16: - 2 y_16 + x_1_16 + x_6_16 + x_9_16 + x_10_16 + x_12_16 + x_15_16
   + x_16_17 = 0
 c_2_17: - 2 y_17 + x_3_17 + x_9_17 + x_11_17 + x_12_17 + x_13_17 + x_16_17
   = 0
 c_2_18: - 2 y_18 + x_0_18 + x_1_18 + x_3_18 + x_7_18 + x_10_18 + x_12_18
   + x_14_18 = 0
 c_2_19: - 2 y_19 + x_4_19 + x_11_19 = 0
Bounds
 Constant = 1
Binaries
 y_0 y_1 y_2 y_3 y_4 y_5 y_6 y_7 y_8 y_9 y_10 y_11 y_12 y_13 y_14 y_15 y_16
 y_17 y_18 y_19 x_0_2 x_0_3 x_0_11 x_0_13 x_0_15 x_0_18 x_1_7 x_1_9 x_1_11
 x_1_14 x_1_16 x_1_18 x_2_4 x_2_7 x_2_10 x_2_13 x_3_4 x_3_17 x_3_18 x_4_10
 x_4_14 x_4_19 x_5_12 x_5_15 x_6_9 x_6_10 x_6_11 x_6_12 x_6_14 x_6_15
 x_6_16 x_7_9 x_7_13 x_7_18 x_8_9 x_8_10 x_8_15 x_9_12 x_9_15 x_9_16 x_9_17
 x_10_13 x_10_16 x_10_18 x_11_12 x_11_14 x_11_17 x_11_19 x_12_14 x_12_16
 x_12_17 x_12_18 x_13_17 x_14_15 x_14_18 x_15_16 x_16_17
End
